(set-logic ALL)
(set-option :produce-models true)
(declare-sort BoundSet 0)
(declare-sort UnboundSet 0)
(set-option :finite-model-find true)
(declare-fun IsPitching (BoundSet BoundSet) Bool)
(declare-fun IsInGameOfBaseball (BoundSet BoundSet) Bool)
(declare-fun IsThrowing (BoundSet BoundSet) Bool)
(assert (not (=> (exists ((b BoundSet)) (exists ((a BoundSet)) (exists ((c BoundSet)) (and (IsPitching a b) (IsInGameOfBaseball b c))))) (exists ((b BoundSet)) (exists ((a BoundSet)) (IsThrowing a b))))))
(check-sat)
(get-model)